(set-info :smt-lib-version 2.7)
(set-logic ALL)
(set-info :source |
Generated on: 2026-06-22
Generator: pog2smtlib-2.7 github.com/CLEARSY/pog2smtlib-2.7 (-l HO_ALL -rpX)
Application: Discharging a proof obligation generated by aTelierB from an anonymized B machine
Target solver: CVC5 (--mbqi --enum-inst)
Time limit: 1200.0
|)
(set-info :license "www.gnu.org/licenses/gpl-3.0.en.html")
(set-info :category "industrial")
(set-info :status unknown)

(declare-datatype C (par (T1 T2) ((maplet (fst T1) (snd T2)))))
(define-sort |Z| () Int)
(declare-sort P 1)
(define-sort |(Z x Z)| () (C |Z| |Z|))
(define-sort |POW Z| () (P |Z|))
(define-sort |POW (Z x Z)| () (P |(Z x Z)|))
(declare-fun |set.in Z| (|Z| |POW Z|) Bool)
(declare-fun |set.in (Z x Z)| (|(Z x Z)| |POW (Z x Z)|) Bool)
(define-sort |POW POW (Z x Z)| () (P |POW (Z x Z)|))
(declare-fun |rel.range Z Z| (|POW (Z x Z)|) |POW Z|)
(assert (!
  (forall ((r |POW (Z x Z)|) (e |Z|))
    (= (|set.in Z| e (|rel.range Z Z| r))
       (exists ((x |Z|)) (|set.in (Z x Z)| (maplet x e) r))))
  :named |ax:set.in.range (Z x Z)|))
(assert (!
  (forall ((s |POW Z|) (t |POW Z|))
    (=
      (= s t)
      (forall ((e |Z|)) (= (|set.in Z| e s) (|set.in Z| e t)))))
  :named |ax.set.eq Z|))
(declare-fun |set.in POW (Z x Z)| (|POW (Z x Z)| |POW POW (Z x Z)|) Bool)
(declare-sort |s522| 0)
(declare-datatype |s566| ((s567)(s568)(s569)(s570)(s571)(s572)(s573)(s574)(s575)))
(declare-fun |surjections Z Z| (|POW Z| |POW Z|) |POW POW (Z x Z)|)
(assert (!
  (forall ((X |POW Z|) (Y |POW Z|))
    (forall ((f |POW (Z x Z)|))
      (= (|set.in POW (Z x Z)| f (|surjections Z Z| X Y))
         (= (|rel.range Z Z| f) Y)
      )))
  :named |ax:set.in.surjections (Z x Z)|))
(declare-fun |injections Z Z| (|POW Z| |POW Z|) |POW POW (Z x Z)|)
(assert (!
  (forall ((X |POW Z|) (Y |POW Z|) (f |POW (Z x Z)|))
     (= (|set.in POW (Z x Z)| f (|injections Z Z| X Y))
        (forall ((p |(Z x Z)|) (q |(Z x Z)|))
          (=> (and (|set.in (Z x Z)| p f) (|set.in (Z x Z)| q f) (= (snd p) (snd q)))
              (= (fst p) (fst q))))))
  :named |ax:set.in.injections (Z x Z)|))
(define-sort |POW POW Z| () (P |POW Z|))
(declare-datatype |s523| ((s524)(s525)(s526)(s527)(s528)(s529)(s530)(s531)(s532)(s533)(s534)(s535)(s536)(s537)(s538)(s539)(s540)))
(declare-sort |s519| 0)
(declare-sort |s520| 0)
(declare-sort |s521| 0)
(define-sort |POW s522| () (P |s522|))
(define-sort |POW s566| () (P |s566|))
(declare-datatype Cardinals ( ( Infinite ) ( Finite ( Value Int ) )))
(declare-fun |interval| (|Z| |Z|) |POW Z|)
 (assert (!
    (forall ((l |Z|) (u |Z|) (e |Z|))
        (= (|set.in Z| e (|interval| l u))
            (and (<= l e) (<= e u))))
    :named |ax.set.in.interval|))
(declare-fun |bijections Z Z| (|POW Z| |POW Z|) |POW POW (Z x Z)|)
(assert (!
  (forall ((X |POW Z|) (Y |POW Z|))
    (forall ((f |POW (Z x Z)|))
      (= (|set.in POW (Z x Z)| f (|bijections Z Z| X Y))
         (and (|set.in POW (Z x Z)| f (|injections Z Z| X Y))
              (|set.in POW (Z x Z)| f (|surjections Z Z| X Y))))))
  :named |ax:set.in.bijections (Z x Z)|))
(declare-fun |set.subseteq Z| (|POW Z| |POW Z|) Bool)
(assert (!
    (forall ((s |POW Z|) (t |POW Z|))
      (=
        (|set.subseteq Z| s t)
        (forall ((e |Z|)) (=> (|set.in Z| e s) (|set.in Z| e t)))
      )
    )
    :named |ax.set.subseteq Z|))
(declare-fun |set.in POW Z| (|POW Z| |POW POW Z|) Bool)
(define-sort |POW s523| () (P |s523|))
(define-sort |POW s519| () (P |s519|))
(define-sort |POW s520| () (P |s520|))
(define-sort |POW s521| () (P |s521|))
(declare-fun |set.in s522| (|s522| |POW s522|) Bool)
(declare-fun |set.in s566| (|s566| |POW s566|) Bool)
(define-const MAXINT |Z| 2147483647)
(declare-fun |card Z| (|POW Z|) Cardinals)
(assert (!
  (forall ((s |POW Z|))
    (or (= (|card Z| s) Infinite)
        (exists ((f |POW (Z x Z)|))
          (|set.in POW (Z x Z)| f (|bijections Z Z| s (|interval| 1 (Value (|card Z| s))))))))
  :named |ax.card.definition Z|))
(declare-fun |sub-sets Z| (|POW Z|) |POW POW Z|)
(assert (!
  (forall ((s |POW Z|) (t |POW Z|))
    (=
      (|set.in POW Z| s (|sub-sets Z| t))
      (|set.subseteq Z| s t)))
  :named |ax.sub-sets Z|))
(declare-fun |set.in s523| (|s523| |POW s523|) Bool)
(declare-fun |set.in s519| (|s519| |POW s519|) Bool)
(declare-fun |set.in s520| (|s520| |POW s520|) Bool)
(declare-fun |set.in s521| (|s521| |POW s521|) Bool)
(declare-const |set.empty Z| |POW Z|)
(assert (!
  (forall ((e |Z|)) (not (|set.in Z| e |set.empty Z|)))
  :named |ax.set.in.empty Z|))
(declare-const s604 |POW Z|)
(declare-const s601 |POW Z|)
(declare-const s521 |POW s521|)
(declare-const s594 |POW Z|)
(declare-const s599 |POW s522|)
(declare-const s595 |POW s521|)
(declare-const s582 |POW Z|)
(declare-const s592 |POW s520|)
(declare-const s602 |POW Z|)
(declare-const s597 |POW s521|)
(declare-const s591 |POW s520|)
(declare-const s605 |POW Z|)
(declare-const s520 |POW s520|)
(declare-const s608 |POW Z|)
(declare-const s603 |POW Z|)
(declare-const s581 |POW Z|)
(declare-const s600 |POW Z|)
(declare-const s598 |POW s522|)
(declare-const s593 |POW s520|)
(declare-const s583 |POW s566|)
(declare-const s522 |POW s522|)
(declare-const s585 |POW s523|)
(declare-const s588 |POW s519|)
(declare-const s584 |POW s522|)
(declare-const s589 |POW Z|)
(declare-const s523 |POW s523|)
(declare-const s590 |Z|)
(declare-const s586 |POW s519|)
(declare-const s596 |POW s521|)
(declare-const s587 |POW s519|)
(declare-const s606 |POW Z|)
(declare-const s607 |POW Z|)
(assert (!
  (forall ((s |POW s522|) (t |POW s522|))
    (=
      (= s t)
      (forall ((e |s522|)) (= (|set.in s522| e s) (|set.in s522| e t)))))
  :named |ax.set.eq s522|))
(define-sort |? s566| () (-> |s566| Bool))
(declare-const |set.intent s566| (-> |? s566| |POW s566|))
(assert (!
  (forall ((p |? s566|))
    (forall ((x |s566|))
      (= (|set.in s566| x (|set.intent s566| p))
         (@ p x))))
  :named |ax:set.in.intent s566|))
(assert (!
  (forall ((s |POW s566|) (t |POW s566|))
    (=
      (= s t)
      (forall ((e |s566|)) (= (|set.in s566| e s) (|set.in s566| e t)))))
  :named |ax.set.eq s566|))
(declare-const NAT |POW Z|)
(assert (!
  (forall ((e |Z|)) (= (|set.in Z| e NAT) (and (<= 0 e) (<= e MAXINT))))
  :named |ax.set.in.NAT|))
(declare-fun |finite sub-sets Z| (|POW Z|) |POW POW Z|)
(assert (!
  (forall ((s |POW Z|) (t |POW Z|))
    (= (|set.in POW Z| s (|finite sub-sets Z| t))
       (and
         (|set.in POW Z| s (|sub-sets Z| t))
         (not (= (|card Z| s) Infinite)))))
  :named |ax.finite sub-sets Z|))
(declare-const NATURAL |POW Z|)
(assert (!
  (forall ((e |Z|)) (= (|set.in Z| e NATURAL) (<= 0 e)))
  :named |ax.set.in.NATURAL|))
(declare-fun |set.inter Z| (|POW Z| |POW Z|) |POW Z|)
(assert (!
  (forall ((e |Z|) (s |POW Z|) (t |POW Z|))
    (= (|set.in Z| e (|set.inter Z| s t))
       (and (|set.in Z| e s) (|set.in Z| e t))))
  :named |ax.set.in.inter Z|))
(assert (!
  (forall ((s |POW s523|) (t |POW s523|))
    (=
      (= s t)
      (forall ((e |s523|)) (= (|set.in s523| e s) (|set.in s523| e t)))))
  :named |ax.set.eq s523|))
(declare-fun |set.subseteq s519| (|POW s519| |POW s519|) Bool)
(assert (!
    (forall ((s |POW s519|) (t |POW s519|))
      (=
        (|set.subseteq s519| s t)
        (forall ((e |s519|)) (=> (|set.in s519| e s) (|set.in s519| e t)))
      )
    )
    :named |ax.set.subseteq s519|))
(assert (!
  (forall ((s |POW s519|) (t |POW s519|))
    (=
      (= s t)
      (forall ((e |s519|)) (= (|set.in s519| e s) (|set.in s519| e t)))))
  :named |ax.set.eq s519|))
(declare-const |set.empty s519| |POW s519|)
(assert (!
  (forall ((e |s519|)) (not (|set.in s519| e |set.empty s519|)))
  :named |ax.set.in.empty s519|))
(assert (!
  (forall ((s |POW s520|) (t |POW s520|))
    (=
      (= s t)
      (forall ((e |s520|)) (= (|set.in s520| e s) (|set.in s520| e t)))))
  :named |ax.set.eq s520|))
(declare-const |set.empty s520| |POW s520|)
(assert (!
  (forall ((e |s520|)) (not (|set.in s520| e |set.empty s520|)))
  :named |ax.set.in.empty s520|))
(declare-fun |set.subseteq s520| (|POW s520| |POW s520|) Bool)
(assert (!
    (forall ((s |POW s520|) (t |POW s520|))
      (=
        (|set.subseteq s520| s t)
        (forall ((e |s520|)) (=> (|set.in s520| e s) (|set.in s520| e t)))
      )
    )
    :named |ax.set.subseteq s520|))
(assert (!
  (forall ((s |POW s521|) (t |POW s521|))
    (=
      (= s t)
      (forall ((e |s521|)) (= (|set.in s521| e s) (|set.in s521| e t)))))
  :named |ax.set.eq s521|))
(declare-fun |set.subseteq s522| (|POW s522| |POW s522|) Bool)
(assert (!
    (forall ((s |POW s522|) (t |POW s522|))
      (=
        (|set.subseteq s522| s t)
        (forall ((e |s522|)) (=> (|set.in s522| e s) (|set.in s522| e t)))
      )
    )
    :named |ax.set.subseteq s522|))
(declare-fun |min| (|POW Z|) |Z|)
(assert (!
  (forall ((s |POW Z|))
    (=> (not (= s |set.empty Z|)) (|set.in Z| (|min| s) s)))
  :named |ax.min.is.member|))
 (assert (!
   (forall ((s |POW Z|))
     (forall ((e |Z|))
        (=> (|set.in Z| e s) (<= (|min| s) e))))
  :named |ax.min.is.ge|))
(declare-fun |max| (|POW Z|) |Z|)
(assert (!
  (forall ((s |POW Z|))
    (=> (not (= s |set.empty Z|)) (|set.in Z| (|max| s) s)))
  :named |ax.max.is.member|))
(assert (!
  (forall ((s |POW Z|))
    (forall ((e |Z|))
      (=> (|set.in Z| e s) (<= e (|max| s)))))
    :named |ax.max.is.ge|))
(assert (!
  (|set.subseteq Z| s581 NAT)
  :named |Local_Hyp:0|))
(assert (!
  (not
  (= s581 |set.empty Z|))
  :named |Local_Hyp:1|))
(assert (!
  (= s581 (|interval| 0 31))
  :named |Local_Hyp:2|))
(assert (!
  (= s582 s581)
  :named |Local_Hyp:3|))
(assert (!
  (= s583 (|set.intent s566| (lambda ((_c0 |s566|)) (or (= _c0 s568)(= _c0 s569)(= _c0 s570)(= _c0 s571)(= _c0 s572)(= _c0 s573)(= _c0 s574)(= _c0 s575)))))
  :named |Local_Hyp:5|))
(assert (!
  (not
  (|set.in s566| s567 s583))
  :named |Local_Hyp:7|))
(assert (!
  (= s584 s522)
  :named |Local_Hyp:8|))
(assert (!
  (= s585 s523)
  :named |Local_Hyp:9|))
(assert (!
  (|set.subseteq s519| s588 s587)
  :named |Local_Hyp:12|))
(assert (!
  (= s588 s586)
  :named |Local_Hyp:13|))
(assert (!
  (|set.subseteq Z| s589 NAT)
  :named |Local_Hyp:14|))
(assert (!
  (not
  (= s589 |set.empty Z|))
  :named |Local_Hyp:15|))
(assert (!
  (= s589 (|interval| 0 2))
  :named |Local_Hyp:16|))
(assert (!
  (|set.in Z| s590 s589)
  :named |Local_Hyp:17|))
(assert (!
  (not
  (= s586 |set.empty s519|))
  :named |Local_Hyp:18|))
(assert (!
  (not
  (= s591 |set.empty s520|))
  :named |Local_Hyp:20|))
(assert (!
  (= s592 s520)
  :named |Local_Hyp:21|))
(assert (!
  (|set.subseteq s520| s593 s592)
  :named |Local_Hyp:22|))
(assert (!
  (= s593 s591)
  :named |Local_Hyp:23|))
(assert (!
  (= s594 NAT)
  :named |Local_Hyp:24|))
(assert (!
  (= s596 s521)
  :named |Local_Hyp:26|))
(assert (!
  (= s597 s595)
  :named |Local_Hyp:28|))
(assert (!
  (|set.subseteq s522| s599 s584)
  :named |Local_Hyp:30|))
(assert (!
  (= s600 NAT)
  :named |Local_Hyp:31|))
(assert (!
  (= s601 NAT)
  :named |Local_Hyp:32|))
(assert (!
  (= s602 NAT)
  :named |Local_Hyp:33|))
(assert (!
  (|set.subseteq Z| s603 NAT)
  :named |Local_Hyp:34|))
(assert (!
  (not
  (= s603 |set.empty Z|))
  :named |Local_Hyp:35|))
(assert (!
  (= s603 (|interval| (|min| s603) (|max| s603)))
  :named |Local_Hyp:36|))
(assert (!
  (|set.subseteq Z| s604 NAT)
  :named |Local_Hyp:37|))
(assert (!
  (not
  (= s604 |set.empty Z|))
  :named |Local_Hyp:38|))
(assert (!
  (= s604 (|interval| (|min| s604) (|max| s604)))
  :named |Local_Hyp:39|))
(assert (!
  (|set.subseteq Z| s605 NAT)
  :named |Local_Hyp:40|))
(assert (!
  (not
  (= s605 |set.empty Z|))
  :named |Local_Hyp:41|))
(assert (!
  (= s605 (|interval| (|min| s605) (|max| s605)))
  :named |Local_Hyp:42|))
(assert (!
  (|set.subseteq Z| s606 NAT)
  :named |Local_Hyp:43|))
(assert (!
  (not
  (= s606 |set.empty Z|))
  :named |Local_Hyp:44|))
(assert (!
  (= s606 (|interval| (|min| s606) (|max| s606)))
  :named |Local_Hyp:45|))
(assert (!
  (|set.subseteq Z| s607 NAT)
  :named |Local_Hyp:46|))
(assert (!
  (not
  (= s607 |set.empty Z|))
  :named |Local_Hyp:47|))
(assert (!
  (= s607 (|interval| (|min| s607) (|max| s607)))
  :named |Local_Hyp:48|))
(assert (!
  (|set.subseteq Z| s608 NAT)
  :named |Local_Hyp:49|))
(assert (!
  (not
  (= s608 |set.empty Z|))
  :named |Local_Hyp:50|))
(assert (!
  (not
    (|set.in POW Z| (|set.inter Z| s608 NATURAL) (|finite sub-sets Z| NATURAL)))
  :named |Goal|))
(check-sat)
(exit)
